10	5
0	5	3	4	2	6	1
1	3	8	5	7
2	1	5
3	2	7	10
4	1	5
5	1	9
6	2	11	4
7	1	11
8	1	11
9	1	11
10	1	11
11	0
0	0	0	0	0	0	0
1	1	0	0	2	0	3
2	2	0	4	4	2	3
3	1	5	4	0	0	4
4	5	1	4	3	5	0
5	2	0	3	3	4	5
6	8	1	4	4	0	1
7	1	1	1	3	4	2
8	10	4	1	5	1	2
9	6	3	1	2	0	0
10	3	3	3	2	0	2
11	0	0	0	0	0	0
7	11	12	7	7
